NAME : tsp_363_sol.txt
COMMENT : OR-Tools Guided Local Search
TYPE : TOUR
DIMENSION : 50
COST : 6237
STATUS : ROUTING_SUCCESS
GAP : 0.00% (Reference Solution)
TOUR_SECTION
1
49
9
39
22
13
6
25
46
5
36
38
11
41
35
27
16
26
47
24
18
37
4
34
23
50
10
33
29
30
20
3
44
45
28
14
12
43
42
32
31
8
2
7
40
17
21
48
19
15
-1
